NAME : X_38_seed_123_id_18
TYPE : CVRP
DIMENSION : 275
EDGE_WEIGHT_TYPE : EUC_2D
CAPACITY : 10
NODE_COORD_SECTION
1	212	616
2	574	199
3	984	821
4	956	912
5	578	225
6	700	308
7	829	979
8	946	933
9	584	46
10	919	880
11	644	198
12	896	813
13	963	793
14	942	995
15	857	895
16	609	250
17	945	916
18	991	800
19	916	941
20	974	993
21	922	923
22	413	139
23	975	844
24	633	190
25	960	774
26	580	180
27	583	295
28	506	277
29	550	286
30	931	889
31	944	928
32	921	909
33	962	888
34	915	981
35	645	164
36	792	773
37	968	891
38	447	357
39	940	919
40	936	763
41	979	906
42	984	914
43	509	260
44	660	170
45	941	784
46	391	157
47	979	813
48	978	925
49	959	933
50	935	935
51	919	967
52	637	162
53	541	262
54	648	234
55	966	969
56	643	128
57	547	191
58	951	759
59	965	855
60	609	271
61	994	923
62	579	170
63	976	914
64	595	223
65	614	252
66	891	875
67	734	913
68	943	948
69	960	821
70	583	218
71	939	831
72	932	932
73	958	874
74	1000	878
75	902	926
76	620	178
77	975	856
78	994	837
79	945	809
80	818	891
81	876	883
82	549	114
83	522	296
84	970	860
85	981	818
86	989	935
87	585	256
88	947	896
89	561	126
90	949	866
91	605	178
92	522	166
93	545	226
94	571	45
95	586	173
96	589	260
97	971	785
98	970	932
99	552	85
100	935	810
101	556	77
102	961	922
103	931	891
104	544	230
105	895	786
106	961	849
107	952	751
108	884	974
109	644	141
110	602	189
111	613	168
112	953	925
113	882	556
114	649	222
115	608	185
116	564	210
117	789	260
118	584	242
119	644	189
120	951	770
121	591	77
122	496	245
123	532	416
124	529	264
125	897	746
126	990	957
127	588	204
128	852	890
129	567	127
130	940	848
131	857	716
132	976	866
133	603	130
134	984	750
135	986	824
136	831	887
137	889	939
138	921	977
139	940	964
140	453	195
141	801	925
142	490	345
143	504	537
144	927	906
145	671	224
146	977	934
147	580	173
148	919	753
149	902	990
150	947	930
151	533	246
152	538	121
153	930	926
154	614	135
155	931	890
156	645	192
157	952	892
158	659	205
159	974	829
160	551	242
161	523	51
162	978	767
163	647	221
164	625	214
165	524	109
166	550	163
167	965	834
168	550	181
169	846	789
170	860	816
171	945	958
172	693	181
173	836	912
174	955	773
175	851	818
176	425	234
177	896	775
178	979	759
179	446	120
180	973	754
181	988	823
182	983	940
183	569	182
184	912	803
185	979	937
186	960	920
187	593	236
188	965	831
189	938	868
190	950	715
191	999	807
192	599	295
193	930	827
194	934	795
195	962	858
196	973	959
197	946	865
198	984	902
199	943	822
200	617	197
201	928	952
202	949	963
203	943	849
204	564	172
205	895	914
206	964	802
207	550	164
208	552	176
209	446	193
210	565	153
211	546	250
212	605	258
213	591	249
214	550	89
215	954	960
216	469	213
217	488	256
218	585	187
219	595	187
220	548	88
221	932	864
222	594	200
223	961	920
224	481	137
225	963	972
226	979	901
227	866	945
228	980	734
229	577	196
230	912	953
231	574	199
232	999	972
233	918	848
234	608	225
235	884	961
236	947	882
237	858	847
238	959	870
239	986	810
240	596	286
241	943	948
242	951	794
243	627	330
244	988	895
245	570	177
246	984	958
247	524	274
248	921	816
249	514	239
250	572	210
251	421	240
252	902	902
253	789	957
254	652	93
255	609	185
256	774	184
257	654	352
258	918	814
259	954	803
260	960	931
261	671	248
262	989	843
263	541	196
264	998	917
265	681	241
266	546	204
267	936	850
268	923	741
269	921	901
270	607	126
271	991	798
272	946	917
273	986	904
274	981	899
275	961	863
DEMAND_SECTION
1	0
2	1
3	1
4	1
5	1
6	1
7	1
8	1
9	1
10	1
11	1
12	1
13	1
14	1
15	1
16	1
17	1
18	1
19	1
20	1
21	1
22	1
23	1
24	1
25	1
26	1
27	1
28	1
29	1
30	1
31	1
32	1
33	1
34	1
35	1
36	1
37	1
38	1
39	1
40	1
41	1
42	1
43	1
44	1
45	1
46	1
47	1
48	1
49	1
50	1
51	1
52	1
53	1
54	1
55	1
56	1
57	1
58	1
59	1
60	1
61	1
62	1
63	1
64	1
65	1
66	1
67	1
68	1
69	1
70	1
71	1
72	1
73	1
74	1
75	1
76	1
77	1
78	1
79	1
80	1
81	1
82	1
83	1
84	1
85	1
86	1
87	1
88	1
89	1
90	1
91	1
92	1
93	1
94	1
95	1
96	1
97	1
98	1
99	1
100	1
101	1
102	1
103	1
104	1
105	1
106	1
107	1
108	1
109	1
110	1
111	1
112	1
113	1
114	1
115	1
116	1
117	1
118	1
119	1
120	1
121	1
122	1
123	1
124	1
125	1
126	1
127	1
128	1
129	1
130	1
131	1
132	1
133	1
134	1
135	1
136	1
137	1
138	1
139	1
140	1
141	1
142	1
143	1
144	1
145	1
146	1
147	1
148	1
149	1
150	1
151	1
152	1
153	1
154	1
155	1
156	1
157	1
158	1
159	1
160	1
161	1
162	1
163	1
164	1
165	1
166	1
167	1
168	1
169	1
170	1
171	1
172	1
173	1
174	1
175	1
176	1
177	1
178	1
179	1
180	1
181	1
182	1
183	1
184	1
185	1
186	1
187	1
188	1
189	1
190	1
191	1
192	1
193	1
194	1
195	1
196	1
197	1
198	1
199	1
200	1
201	1
202	1
203	1
204	1
205	1
206	1
207	1
208	1
209	1
210	1
211	1
212	1
213	1
214	1
215	1
216	1
217	1
218	1
219	1
220	1
221	1
222	1
223	1
224	1
225	1
226	1
227	1
228	1
229	1
230	1
231	1
232	1
233	1
234	1
235	1
236	1
237	1
238	1
239	1
240	1
241	1
242	1
243	1
244	1
245	1
246	1
247	1
248	1
249	1
250	1
251	1
252	1
253	1
254	1
255	1
256	1
257	1
258	1
259	1
260	1
261	1
262	1
263	1
264	1
265	1
266	1
267	1
268	1
269	1
270	1
271	1
272	1
273	1
274	1
275	1
DEPOT_SECTION
1
-1
EOF
